# Objective value = 6.9338600000000406e+03
I_0_0 676
I_0_1 7.4300000000000023e+02
I_0_2 831.999999999998
I_0_3 8.3900000000000432e+02
I_0_4 7.3099999999999807e+02
I_0_5 7.2399999999999875e+02
I_0_6 1.0379999999999986e+03
I_1_0 53
I_1_1 5.2999999999997129e+01
I_1_2 4.9815035731053959e-12
I_1_3 53
I_1_4 5.2999999999999886e+01
I_1_5 53
I_1_6 0
I_2_0 67
I_2_1 0
I_2_2 6.7000000000002842e+01
I_2_3 0
I_2_4 67.0000000000025
I_2_5 67
I_2_6 0
I_3_0 91
I_3_1 91
I_3_2 91
I_3_3 91
I_3_4 91
I_3_5 91
I_3_6 0
I_4_0 55
I_4_1 55
I_4_2 -3.2122733519124451e-12
I_4_3 5.4999999999998231e+01
I_4_4 -1.7763568394002505e-12
I_4_5 5.4999999999999993e+01
I_4_6 0
I_5_0 96
I_5_1 9.6000000000002586e+01
I_5_2 4.7999999999997407e+01
I_5_3 -2.5934809855243657e-12
I_5_4 9.6000000000001279e+01
I_5_5 4.8000000000001279e+01
I_5_6 1.2789769243681803e-12
q_1_0_0 0
q_1_0_1 -2.8917783307013572e-12
q_1_0_2 -4.9815035731053959e-12
q_1_0_3 5.2999999999999886e+01
q_1_0_4 5.3000000000000114e+01
q_1_0_5 0
q_1_1_0 5.2999999999997129e+01
q_1_1_1 1.0743275560850465e-11
q_1_1_2 106
q_1_1_3 0
q_1_1_4 0
q_1_1_5 0
q_1_2_0 0
q_1_2_1 0
q_1_2_2 0
q_1_2_3 0
q_1_2_4 0
q_1_2_5 0
q_2_0_0 0
q_2_0_1 1.3400000000000284e+02
q_2_0_2 -2.8421709430404007e-12
q_2_0_3 2.4957813593573519e-12
q_2_0_4 66.9999999999975
q_2_0_5 0
q_2_1_0 0
q_2_1_1 0
q_2_1_2 0
q_2_1_3 134
q_2_1_4 0
q_2_1_5 0
q_2_2_0 0
q_2_2_1 0
q_2_2_2 0
q_2_2_3 0
q_2_2_4 0
q_2_2_5 0
q_3_0_0 91
q_3_0_1 0
q_3_0_2 0
q_3_0_3 91
q_3_0_4 0
q_3_0_5 0
q_3_1_0 0
q_3_1_1 91
q_3_1_2 0
q_3_1_3 0
q_3_1_4 91
q_3_1_5 0
q_3_2_0 0
q_3_2_1 0
q_3_2_2 91
q_3_2_3 0
q_3_2_4 0
q_3_2_5 0
q_4_0_0 0
q_4_0_1 0
q_4_0_2 1.1000000000000497e+02
q_4_0_3 0
q_4_0_4 0
q_4_0_5 0
q_4_1_0 55
q_4_1_1 0
q_4_1_2 0
q_4_1_3 0
q_4_1_4 1.7834622667578515e-12
q_4_1_5 0
q_4_2_0 0
q_4_2_1 -3.2122733519124455e-12
q_4_2_2 -3.5326770766577735e-12
q_4_2_3 0
q_4_2_4 110
q_4_2_5 0
q_5_0_0 0
q_5_0_1 0
q_5_0_2 0
q_5_0_3 1.7763568394002505e-15
q_5_0_4 0
q_5_0_5 0
q_5_1_0 4.8000000000002579e+01
q_5_1_1 -3.4368277187283359e-11
q_5_1_2 0
q_5_1_3 0
q_5_1_4 0
q_5_1_5 0
q_5_2_0 0
q_5_2_1 2.9195526070949830e-11
q_5_2_2 0
q_5_2_3 1.4400000000000387e+02
q_5_2_4 0
q_5_2_5 0
y_0_0_0 1
y_0_0_1 1
y_0_0_2 1
y_0_0_3 1
y_0_0_4 1
y_0_0_5 0
y_0_1_0 1
y_0_1_1 1
y_0_1_2 1
y_0_1_3 1
y_0_1_4 1
y_0_1_5 0
y_0_2_0 0
y_0_2_1 3.0412006323906074e-13
y_0_2_2 1
y_0_2_3 1.0000000000000269e+00
y_0_2_4 1
y_0_2_5 0
y_1_0_0 0
y_1_0_1 0
y_1_0_2 0
y_1_0_3 1
y_1_0_4 1
y_1_0_5 0
y_1_1_0 9.9999999999994582e-01
y_1_1_1 0
y_1_1_2 1
y_1_1_3 0
y_1_1_4 0
y_1_1_5 0
y_1_2_0 0
y_1_2_1 0
y_1_2_2 0
y_1_2_3 0
y_1_2_4 0
y_1_2_5 0
y_2_0_0 0
y_2_0_1 1
y_2_0_2 0
y_2_0_3 0
y_2_0_4 1
y_2_0_5 0
y_2_1_0 0
y_2_1_1 0
y_2_1_2 0
y_2_1_3 1
y_2_1_4 0
y_2_1_5 0
y_2_2_0 0
y_2_2_1 0
y_2_2_2 0
y_2_2_3 0
y_2_2_4 0
y_2_2_5 0
y_3_0_0 1
y_3_0_1 0
y_3_0_2 0
y_3_0_3 1
y_3_0_4 0
y_3_0_5 0
y_3_1_0 0
y_3_1_1 1
y_3_1_2 0
y_3_1_3 0
y_3_1_4 1
y_3_1_5 0
y_3_2_0 0
y_3_2_1 0
y_3_2_2 1
y_3_2_3 0
y_3_2_4 0
y_3_2_5 0
y_4_0_0 0
y_4_0_1 0
y_4_0_2 1
y_4_0_3 0
y_4_0_4 0
y_4_0_5 0
y_4_1_0 1
y_4_1_1 0
y_4_1_2 0
y_4_1_3 0
y_4_1_4 1.6213293334162286e-14
y_4_1_5 0
y_4_2_0 0
y_4_2_1 -2.9202485017385868e-14
y_4_2_2 -3.2115246151434306e-14
y_4_2_3 0
y_4_2_4 1
y_4_2_5 0
y_5_0_0 0
y_5_0_1 0
y_5_0_2 0
y_5_0_3 0
y_5_0_4 0
y_5_0_5 0
y_5_1_0 1.0000000000000537e+00
y_5_1_1 -3.58002887367535e-13
y_5_1_2 0
y_5_1_3 0
y_5_1_4 0
y_5_1_5 0
y_5_2_0 0
y_5_2_1 3.0412006323906074e-13
y_5_2_2 0
y_5_2_3 1.0000000000000269e+00
y_5_2_4 0
y_5_2_5 0
x_0_1_0_0 0
x_0_1_0_1 0
x_0_1_0_2 0
x_0_1_0_3 1
x_0_1_0_4 1
x_0_1_0_5 0
x_0_1_1_0 9.9999999999994582e-01
x_0_1_1_1 3.58002887367535e-13
x_0_1_1_2 2
x_0_1_1_3 0
x_0_1_1_4 0
x_0_1_1_5 0
x_0_1_2_0 0
x_0_1_2_1 0
x_0_1_2_2 0
x_0_1_2_3 0
x_0_1_2_4 0
x_0_1_2_5 0
x_0_2_0_0 0
x_0_2_0_1 2
x_0_2_0_2 0
x_0_2_0_3 0
x_0_2_0_4 1
x_0_2_0_5 0
x_0_2_1_0 0
x_0_2_1_1 0
x_0_2_1_2 0
x_0_2_1_3 2
x_0_2_1_4 0
x_0_2_1_5 0
x_0_2_2_0 0
x_0_2_2_1 0
x_0_2_2_2 0
x_0_2_2_3 0
x_0_2_2_4 0
x_0_2_2_5 0
x_0_3_0_0 2
x_0_3_0_1 0
x_0_3_0_2 0
x_0_3_0_3 1
x_0_3_0_4 0
x_0_3_0_5 0
x_0_3_1_0 0
x_0_3_1_1 2.0000000000002687e+00
x_0_3_1_2 0
x_0_3_1_3 0
x_0_3_1_4 2
x_0_3_1_5 0
x_0_3_2_0 0
x_0_3_2_1 0
x_0_3_2_2 2
x_0_3_2_3 0
x_0_3_2_4 0
x_0_3_2_5 0
x_0_4_0_0 0
x_0_4_0_1 0
x_0_4_0_2 2
x_0_4_0_3 0
x_0_4_0_4 0
x_0_4_0_5 0
x_0_4_1_0 0
x_0_4_1_1 0
x_0_4_1_2 0
x_0_4_1_3 0
x_0_4_1_4 0
x_0_4_1_5 0
x_0_4_2_0 0
x_0_4_2_1 0
x_0_4_2_2 0
x_0_4_2_3 0
x_0_4_2_4 2
x_0_4_2_5 0
x_0_5_0_0 0
x_0_5_0_1 0
x_0_5_0_2 0
x_0_5_0_3 2.7755575615628914e-17
x_0_5_0_4 0
x_0_5_0_5 0
x_0_5_1_0 1.0000000000000533e+00
x_0_5_1_1 -7.1600577473507e-13
x_0_5_1_2 0
x_0_5_1_3 0
x_0_5_1_4 0
x_0_5_1_5 0
x_0_5_2_0 0
x_0_5_2_1 6.0824012647812148e-13
x_0_5_2_2 0
x_0_5_2_3 2.0000000000000537e+00
x_0_5_2_4 0
x_0_5_2_5 0
x_1_2_0_0 0
x_1_2_0_1 0
x_1_2_0_2 0
x_1_2_0_3 0
x_1_2_0_4 1
x_1_2_0_5 0
x_1_2_1_0 0
x_1_2_1_1 0
x_1_2_1_2 0
x_1_2_1_3 0
x_1_2_1_4 0
x_1_2_1_5 0
x_1_2_2_0 0
x_1_2_2_1 0
x_1_2_2_2 0
x_1_2_2_3 0
x_1_2_2_4 0
x_1_2_2_5 0
x_1_3_0_0 0
x_1_3_0_1 0
x_1_3_0_2 0
x_1_3_0_3 1
x_1_3_0_4 0
x_1_3_0_5 0
x_1_3_1_0 0
x_1_3_1_1 -2.6858188902126162e-13
x_1_3_1_2 0
x_1_3_1_3 0
x_1_3_1_4 0
x_1_3_1_5 0
x_1_3_2_0 0
x_1_3_2_1 0
x_1_3_2_2 0
x_1_3_2_3 0
x_1_3_2_4 0
x_1_3_2_5 0
x_1_4_0_0 0
x_1_4_0_1 0
x_1_4_0_2 0
x_1_4_0_3 0
x_1_4_0_4 0
x_1_4_0_5 0
x_1_4_1_0 9.9999999999994582e-01
x_1_4_1_1 0
x_1_4_1_2 0
x_1_4_1_3 0
x_1_4_1_4 0
x_1_4_1_5 0
x_1_4_2_0 0
x_1_4_2_1 0
x_1_4_2_2 0
x_1_4_2_3 0
x_1_4_2_4 0
x_1_4_2_5 0
x_1_5_0_0 0
x_1_5_0_1 0
x_1_5_0_2 0
x_1_5_0_3 0
x_1_5_0_4 0
x_1_5_0_5 0
x_1_5_1_0 0
x_1_5_1_1 0
x_1_5_1_2 0
x_1_5_1_3 0
x_1_5_1_4 0
x_1_5_1_5 0
x_1_5_2_0 0
x_1_5_2_1 0
x_1_5_2_2 0
x_1_5_2_3 0
x_1_5_2_4 0
x_1_5_2_5 0
x_2_3_0_0 0
x_2_3_0_1 0
x_2_3_0_2 0
x_2_3_0_3 0
x_2_3_0_4 0
x_2_3_0_5 0
x_2_3_1_0 0
x_2_3_1_1 0
x_2_3_1_2 0
x_2_3_1_3 0
x_2_3_1_4 0
x_2_3_1_5 0
x_2_3_2_0 0
x_2_3_2_1 0
x_2_3_2_2 0
x_2_3_2_3 0
x_2_3_2_4 0
x_2_3_2_5 0
x_2_4_0_0 0
x_2_4_0_1 0
x_2_4_0_2 0
x_2_4_0_3 0
x_2_4_0_4 0
x_2_4_0_5 0
x_2_4_1_0 0
x_2_4_1_1 0
x_2_4_1_2 0
x_2_4_1_3 0
x_2_4_1_4 0
x_2_4_1_5 0
x_2_4_2_0 0
x_2_4_2_1 0
x_2_4_2_2 0
x_2_4_2_3 0
x_2_4_2_4 0
x_2_4_2_5 0
x_2_5_0_0 0
x_2_5_0_1 0
x_2_5_0_2 0
x_2_5_0_3 0
x_2_5_0_4 0
x_2_5_0_5 0
x_2_5_1_0 0
x_2_5_1_1 0
x_2_5_1_2 0
x_2_5_1_3 0
x_2_5_1_4 0
x_2_5_1_5 0
x_2_5_2_0 0
x_2_5_2_1 0
x_2_5_2_2 0
x_2_5_2_3 0
x_2_5_2_4 0
x_2_5_2_5 0
x_3_4_0_0 0
x_3_4_0_1 0
x_3_4_0_2 0
x_3_4_0_3 0
x_3_4_0_4 0
x_3_4_0_5 0
x_3_4_1_0 0
x_3_4_1_1 0
x_3_4_1_2 0
x_3_4_1_3 0
x_3_4_1_4 0
x_3_4_1_5 0
x_3_4_2_0 0
x_3_4_2_1 0
x_3_4_2_2 0
x_3_4_2_3 0
x_3_4_2_4 0
x_3_4_2_5 0
x_3_5_0_0 0
x_3_5_0_1 0
x_3_5_0_2 0
x_3_5_0_3 0
x_3_5_0_4 0
x_3_5_0_5 0
x_3_5_1_0 0
x_3_5_1_1 0
x_3_5_1_2 0
x_3_5_1_3 0
x_3_5_1_4 0
x_3_5_1_5 0
x_3_5_2_0 0
x_3_5_2_1 0
x_3_5_2_2 0
x_3_5_2_3 0
x_3_5_2_4 0
x_3_5_2_5 0
x_4_5_0_0 0
x_4_5_0_1 0
x_4_5_0_2 0
x_4_5_0_3 0
x_4_5_0_4 0
x_4_5_0_5 0
x_4_5_1_0 1.0000000000000542e+00
x_4_5_1_1 0
x_4_5_1_2 0
x_4_5_1_3 0
x_4_5_1_4 0
x_4_5_1_5 0
x_4_5_2_0 0
x_4_5_2_1 0
x_4_5_2_2 0
x_4_5_2_3 0
x_4_5_2_4 0
x_4_5_2_5 0
